computational_data/real_data/solutions/wdbc_trial_006_lex.sol
Optimal - objective value 8.41593100
      0 r_0                         0                0.938053
      1 r_1                         0                0.938053
      2 r_2                         0                0.964602
      3 r_3                         1                0.938053
      4 r_4                         0                0.946903
      5 r_5                         0                0.955752
      6 r_6                         0                0.955752
      7 r_7                         0                0.920354
      8 r_8                         0                0.929204
      9 r_9                         0                0.929204
     10 r_10                        1                0.929204
     11 r_11                        0                0.920354
     12 r_12                        0                0.964602
     13 r_13                        0                0.920354
     14 r_14                        1                0.929204
     15 r_15                        0                0.946903
     16 r_16                        0                0.938053
     17 b_0                         0                0.938053
     18 b_1                         1                0.938053
     19 b_2                         0                0.964602
     20 b_3                         0                0.938053
     21 b_4                         0                0.946903
     22 b_5                         1                0.955752
     23 b_6                         0                0.955752
     24 b_7                         1                0.920354
     25 b_8                         1                0.929204
     26 b_9                         1                0.929204
     27 b_10                        0                0.929204
     28 b_11                        0                0.920354
     29 b_12                        0                0.964602
     30 b_13                        0                0.920354
     31 b_14                        0                0.929204
     32 b_15                        1                0.946903
     33 b_16                        0                0.938053
