computational_data/real_data/logs/wdbc_trial_006_lex.log
Welcome to the CBC MILP Solver 
Version: 2.10.12 
Build Date: Aug 20 2024 

command line - /opt/homebrew/bin/cbc computational_data/real_data/lp/wdbc_trial_006_lex.lp seconds 10.0 solve solu computational_data/real_data/solutions/wdbc_trial_006_lex.sol (default strategy 1)
 CoinLpIO::readLp(): Maximization problem reformulated as minimization
Coin0009I Switching back to maximization to get correct duals etc
seconds was changed from 1e+100 to 10
Continuous objective value is 8.46608 - 0.00 seconds
Cgl0003I 0 fixed, 0 tightened bounds, 39 strengthened rows, 4 substitutions
Cgl0003I 0 fixed, 0 tightened bounds, 45 strengthened rows, 0 substitutions
Cgl0003I 0 fixed, 0 tightened bounds, 38 strengthened rows, 0 substitutions
Cgl0003I 0 fixed, 0 tightened bounds, 22 strengthened rows, 0 substitutions
Cgl0003I 0 fixed, 0 tightened bounds, 11 strengthened rows, 0 substitutions
Cgl0003I 0 fixed, 0 tightened bounds, 4 strengthened rows, 0 substitutions
Cgl0003I 0 fixed, 0 tightened bounds, 4 strengthened rows, 0 substitutions
Cgl0003I 0 fixed, 0 tightened bounds, 4 strengthened rows, 0 substitutions
Cgl0003I 0 fixed, 0 tightened bounds, 3 strengthened rows, 0 substitutions
Cgl0004I processed model has 62 rows, 26 columns (26 integer (26 of which binary)) and 336 elements
Cbc0038I Initial state - 10 integers unsatisfied sum - 5
Cbc0038I Pass   1: suminf.    3.00000 (12) obj. 8.42036 iterations 17
Cbc0038I Pass   2: suminf.    3.00000 (12) obj. 8.42036 iterations 4
Cbc0038I Pass   3: suminf.    0.00000 (0) obj. 8.41593 iterations 16
Cbc0038I Solution found of 8.41593
Cbc0038I Before mini branch and bound, 8 integers at bound fixed and 0 continuous
Cbc0038I Full problem 62 rows 26 columns, reduced to 51 rows 18 columns
Cbc0038I Mini branch and bound did not improve solution (0.01 seconds)
Cbc0038I Round again with cutoff of 8.41771
Cbc0038I Reduced cost fixing fixed 2 variables on major pass 2
Cbc0038I Pass   4: suminf.    3.00000 (12) obj. 8.42036 iterations 0
Cbc0038I Pass   5: suminf.    3.00000 (12) obj. 8.42036 iterations 2
Cbc0038I Pass   6: suminf.    0.60305 (11) obj. 8.41771 iterations 15
Cbc0038I Pass   7: suminf.    0.60305 (11) obj. 8.41771 iterations 2
Cbc0038I Pass   8: suminf.    3.00000 (6) obj. 8.42921 iterations 16
Cbc0038I Pass   9: suminf.    3.00000 (6) obj. 8.42921 iterations 9
Cbc0038I Pass  10: suminf.    3.00000 (6) obj. 8.42921 iterations 7
Cbc0038I Pass  11: suminf.    3.50000 (11) obj. 8.42699 iterations 16
Cbc0038I Pass  12: suminf.    2.36842 (13) obj. 8.42059 iterations 9
Cbc0038I Pass  13: suminf.    3.44556 (12) obj. 8.41771 iterations 14
Cbc0038I Pass  14: suminf.    2.94400 (13) obj. 8.41771 iterations 9
Cbc0038I Pass  15: suminf.    3.52779 (15) obj. 8.41771 iterations 21
Cbc0038I Pass  16: suminf.    3.45803 (14) obj. 8.41771 iterations 1
Cbc0038I Pass  17: suminf.    3.00000 (7) obj. 8.41771 iterations 14
Cbc0038I Pass  18: suminf.    3.00000 (6) obj. 8.42036 iterations 13
Cbc0038I Pass  19: suminf.    3.00000 (6) obj. 8.42036 iterations 5
Cbc0038I Pass  20: suminf.    3.59794 (8) obj. 8.41771 iterations 15
Cbc0038I Pass  21: suminf.    4.40198 (11) obj. 8.41771 iterations 13
Cbc0038I Pass  22: suminf.    3.73421 (10) obj. 8.41771 iterations 11
Cbc0038I Pass  23: suminf.    3.73421 (10) obj. 8.41771 iterations 1
Cbc0038I Pass  24: suminf.    3.50000 (13) obj. 8.42036 iterations 11
Cbc0038I Pass  25: suminf.    3.20000 (14) obj. 8.41771 iterations 4
Cbc0038I Pass  26: suminf.    3.00000 (12) obj. 8.41771 iterations 2
Cbc0038I Pass  27: suminf.    3.46733 (14) obj. 8.41771 iterations 20
Cbc0038I Pass  28: suminf.    3.20101 (15) obj. 8.41771 iterations 8
Cbc0038I Pass  29: suminf.    4.00000 (14) obj. 8.41859 iterations 16
Cbc0038I Pass  30: suminf.    2.84615 (14) obj. 8.41771 iterations 8
Cbc0038I Pass  31: suminf.    2.36842 (13) obj. 8.42059 iterations 5
Cbc0038I Pass  32: suminf.    3.44556 (12) obj. 8.41771 iterations 14
Cbc0038I Pass  33: suminf.    2.94400 (13) obj. 8.41771 iterations 9
Cbc0038I No solution found this major pass
Cbc0038I Before mini branch and bound, 2 integers at bound fixed and 0 continuous
Cbc0038I Full problem 62 rows 26 columns, reduced to 56 rows 24 columns
Cbc0038I Mini branch and bound did not improve solution (0.04 seconds)
Cbc0038I After 0.04 seconds - Feasibility pump exiting with objective of 8.41593 - took 0.03 seconds
Cbc0012I Integer solution of 8.415931 found by feasibility pump after 0 iterations and 0 nodes (0.04 seconds)
Cbc0038I Full problem 62 rows 26 columns, reduced to 23 rows 9 columns
Cbc0031I 3 added rows had average density of 4.6666667
Cbc0013I At root node, 5 cuts changed objective from 8.43363 to 8.415931 in 2 passes
Cbc0014I Cut generator 0 (Probing) - 0 row cuts average 0.0 elements, 6 column cuts (6 active)  in 0.000 seconds - new frequency is 1
Cbc0014I Cut generator 1 (Gomory) - 3 row cuts average 9.3 elements, 0 column cuts (0 active)  in 0.000 seconds - new frequency is 1
Cbc0014I Cut generator 2 (Knapsack) - 0 row cuts average 0.0 elements, 0 column cuts (0 active)  in 0.000 seconds - new frequency is -100
Cbc0014I Cut generator 3 (Clique) - 0 row cuts average 0.0 elements, 0 column cuts (0 active)  in 0.000 seconds - new frequency is -100
Cbc0014I Cut generator 4 (MixedIntegerRounding2) - 0 row cuts average 0.0 elements, 0 column cuts (0 active)  in 0.000 seconds - new frequency is -100
Cbc0014I Cut generator 5 (FlowCover) - 0 row cuts average 0.0 elements, 0 column cuts (0 active)  in 0.000 seconds - new frequency is -100
Cbc0014I Cut generator 6 (TwoMirCuts) - 4 row cuts average 7.5 elements, 0 column cuts (0 active)  in 0.000 seconds - new frequency is -100
Cbc0001I Search completed - best objective 8.415931, took 6 iterations and 0 nodes (0.04 seconds)
Cbc0035I Maximum depth 0, 0 variables fixed on reduced cost
Cuts at root node changed objective from 8.43363 to 8.41593
Probing was tried 2 times and created 6 cuts of which 0 were active after adding rounds of cuts (0.000 seconds)
Gomory was tried 2 times and created 3 cuts of which 0 were active after adding rounds of cuts (0.000 seconds)
Knapsack was tried 2 times and created 0 cuts of which 0 were active after adding rounds of cuts (0.000 seconds)
Clique was tried 2 times and created 0 cuts of which 0 were active after adding rounds of cuts (0.000 seconds)
MixedIntegerRounding2 was tried 2 times and created 0 cuts of which 0 were active after adding rounds of cuts (0.000 seconds)
FlowCover was tried 2 times and created 0 cuts of which 0 were active after adding rounds of cuts (0.000 seconds)
TwoMirCuts was tried 2 times and created 4 cuts of which 0 were active after adding rounds of cuts (0.000 seconds)
ZeroHalf was tried 1 times and created 0 cuts of which 0 were active after adding rounds of cuts (0.000 seconds)

Result - Optimal solution found

Objective value:                8.41593100
Enumerated nodes:               0
Total iterations:               6
Time (CPU seconds):             0.04
Time (Wallclock seconds):       0.04

Total time (CPU seconds):       0.04   (Wallclock seconds):       0.04

